100 1477
0 1
0 7
0 19
0 20
0 21
0 22
0 25
0 34
0 35
0 38
0 47
0 51
0 53
0 58
0 60
0 64
0 65
0 67
0 69
0 72
0 75
0 79
0 81
0 84
0 87
0 92
0 93
0 99
1 9
1 10
1 12
1 14
1 17
1 20
1 30
1 33
1 39
1 41
1 45
1 50
1 51
1 53
1 58
1 60
1 72
1 73
1 76
1 81
1 82
1 84
1 89
1 91
1 99
2 5
2 11
2 16
2 21
2 22
2 24
2 28
2 30
2 31
2 35
2 37
2 41
2 44
2 45
2 47
2 48
2 49
2 50
2 53
2 54
2 57
2 58
2 59
2 63
2 67
2 69
2 72
2 73
2 77
2 83
2 84
2 85
2 92
2 95
2 97
3 7
3 10
3 13
3 15
3 21
3 22
3 23
3 26
3 31
3 35
3 36
3 41
3 44
3 45
3 47
3 50
3 53
3 59
3 60
3 62
3 64
3 70
3 76
3 78
3 79
3 82
3 84
3 85
3 86
3 87
3 91
3 94
3 97
3 99
4 5
4 6
4 10
4 11
4 13
4 17
4 22
4 24
4 31
4 32
4 36
4 43
4 45
4 50
4 51
4 52
4 57
4 67
4 68
4 74
4 75
4 79
4 81
4 85
4 87
4 89
4 90
4 93
4 97
4 98
5 7
5 12
5 15
5 16
5 21
5 24
5 26
5 27
5 32
5 34
5 38
5 40
5 41
5 48
5 51
5 52
5 56
5 57
5 58
5 60
5 64
5 69
5 72
5 78
5 79
5 80
5 88
5 89
5 91
5 96
5 98
5 99
6 8
6 10
6 12
6 19
6 24
6 26
6 28
6 29
6 35
6 36
6 38
6 43
6 55
6 57
6 63
6 64
6 74
6 76
6 77
6 84
6 85
6 87
6 90
6 92
6 99
7 10
7 11
7 12
7 14
7 17
7 27
7 28
7 30
7 31
7 39
7 40
7 42
7 43
7 44
7 47
7 48
7 56
7 59
7 68
7 69
7 70
7 73
7 77
7 80
7 83
7 86
7 87
7 90
7 91
7 95
8 12
8 17
8 18
8 26
8 27
8 29
8 31
8 35
8 36
8 38
8 43
8 49
8 50
8 53
8 64
8 66
8 67
8 69
8 71
8 72
8 75
8 92
8 95
8 97
8 99
9 13
9 14
9 20
9 21
9 22
9 24
9 27
9 29
9 30
9 33
9 37
9 38
9 44
9 45
9 50
9 55
9 56
9 62
9 66
9 72
9 73
9 76
9 77
9 82
9 87
9 88
9 92
9 95
9 97
10 23
10 32
10 34
10 36
10 38
10 42
10 45
10 46
10 48
10 50
10 55
10 57
10 60
10 62
10 66
10 74
10 77
10 79
10 85
10 86
10 89
10 98
11 15
11 17
11 24
11 30
11 33
11 34
11 41
11 42
11 43
11 45
11 46
11 47
11 48
11 61
11 62
11 65
11 76
11 83
11 87
11 88
11 90
11 94
11 95
11 96
11 97
12 21
12 29
12 35
12 39
12 46
12 47
12 50
12 51
12 53
12 58
12 60
12 61
12 63
12 64
12 65
12 72
12 73
12 74
12 75
12 76
12 81
12 82
12 87
13 14
13 16
13 17
13 22
13 29
13 33
13 40
13 44
13 48
13 59
13 60
13 61
13 63
13 65
13 66
13 67
13 71
13 72
13 74
13 75
13 76
13 77
13 82
13 85
13 87
13 88
13 89
13 90
13 96
13 98
13 99
14 17
14 18
14 23
14 24
14 25
14 33
14 34
14 40
14 43
14 50
14 57
14 60
14 63
14 68
14 74
14 76
14 80
14 81
14 85
14 86
14 88
15 16
15 18
15 19
15 20
15 23
15 24
15 25
15 26
15 27
15 30
15 33
15 34
15 43
15 44
15 45
15 54
15 55
15 57
15 59
15 60
15 61
15 64
15 69
15 73
15 75
15 79
15 85
15 89
15 90
15 91
15 92
15 95
15 96
15 99
16 18
16 22
16 23
16 27
16 28
16 29
16 32
16 36
16 38
16 40
16 42
16 43
16 45
16 46
16 54
16 55
16 56
16 59
16 60
16 62
16 68
16 69
16 74
16 81
16 83
16 84
16 86
16 90
16 91
16 92
16 99
17 18
17 20
17 24
17 25
17 26
17 27
17 28
17 29
17 36
17 37
17 43
17 46
17 49
17 56
17 60
17 68
17 71
17 74
17 77
17 79
17 82
17 83
17 88
17 90
17 94
17 96
18 21
18 22
18 24
18 30
18 33
18 34
18 40
18 41
18 45
18 59
18 63
18 68
18 69
18 74
18 76
18 79
18 81
18 91
18 97
19 20
19 21
19 24
19 25
19 30
19 36
19 38
19 44
19 54
19 56
19 57
19 58
19 61
19 62
19 63
19 67
19 71
19 85
19 86
19 88
19 98
20 21
20 23
20 32
20 33
20 35
20 37
20 43
20 44
20 45
20 49
20 53
20 54
20 56
20 57
20 60
20 61
20 62
20 66
20 71
20 73
20 77
20 78
20 79
20 81
20 82
20 85
20 86
20 92
20 93
21 35
21 51
21 53
21 58
21 67
21 72
21 74
21 83
21 88
21 92
21 94
21 95
21 97
21 99
22 25
22 31
22 32
22 34
22 37
22 38
22 41
22 45
22 48
22 50
22 54
22 56
22 60
22 62
22 68
22 70
22 71
22 73
22 76
22 77
22 78
22 79
22 80
22 83
22 84
22 89
22 90
22 95
23 24
23 30
23 31
23 34
23 35
23 40
23 41
23 42
23 45
23 47
23 48
23 49
23 50
23 53
23 56
23 57
23 58
23 61
23 62
23 70
23 71
23 79
23 80
23 85
23 87
23 93
23 97
24 25
24 39
24 45
24 50
24 61
24 62
24 66
24 69
24 71
24 75
24 78
24 85
24 88
24 93
24 95
24 98
24 99
25 27
25 37
25 39
25 42
25 44
25 46
25 47
25 51
25 56
25 63
25 65
25 67
25 69
25 74
25 80
25 81
25 83
25 84
25 95
25 96
26 29
26 31
26 39
26 43
26 45
26 47
26 53
26 55
26 58
26 60
26 62
26 64
26 65
26 66
26 68
26 69
26 71
26 72
26 75
26 81
26 82
26 84
26 85
26 87
26 93
26 94
26 99
27 28
27 34
27 38
27 53
27 62
27 72
27 76
27 81
27 84
27 90
27 91
27 95
28 29
28 33
28 36
28 38
28 39
28 40
28 47
28 50
28 53
28 55
28 57
28 59
28 62
28 69
28 77
28 83
28 84
28 88
28 90
28 92
28 99
29 30
29 32
29 33
29 34
29 35
29 37
29 48
29 54
29 55
29 56
29 58
29 59
29 62
29 63
29 74
29 75
29 80
29 84
29 85
29 92
29 93
29 95
29 96
30 33
30 35
30 39
30 40
30 42
30 43
30 44
30 46
30 49
30 54
30 56
30 62
30 63
30 67
30 72
30 73
30 77
30 81
30 83
30 84
30 86
30 91
30 93
30 94
30 95
30 99
31 32
31 35
31 38
31 39
31 47
31 48
31 50
31 54
31 55
31 70
31 74
31 81
31 82
31 90
31 91
31 94
31 97
32 33
32 35
32 45
32 46
32 49
32 50
32 54
32 61
32 64
32 65
32 66
32 67
32 72
32 73
32 76
32 78
32 82
32 83
32 84
32 85
32 87
32 95
33 46
33 48
33 52
33 54
33 55
33 56
33 61
33 62
33 66
33 69
33 72
33 79
33 84
33 86
33 89
33 93
33 95
33 97
33 98
34 35
34 40
34 43
34 46
34 58
34 75
34 90
34 92
34 97
35 37
35 38
35 45
35 46
35 55
35 60
35 62
35 63
35 64
35 67
35 69
35 79
35 83
35 84
35 87
35 96
35 98
36 38
36 41
36 43
36 44
36 45
36 49
36 56
36 57
36 60
36 62
36 66
36 68
36 70
36 73
36 78
36 90
36 91
36 93
36 99
37 39
37 40
37 41
37 42
37 46
37 47
37 48
37 49
37 54
37 56
37 59
37 61
37 71
37 72
37 73
37 74
37 79
37 82
37 84
37 86
37 87
37 88
37 93
37 96
37 98
38 44
38 46
38 48
38 51
38 54
38 55
38 56
38 59
38 60
38 62
38 64
38 66
38 69
38 73
38 76
38 88
38 89
38 90
38 91
38 93
38 94
38 98
38 99
39 42
39 49
39 54
39 56
39 57
39 61
39 64
39 66
39 67
39 73
39 79
39 82
39 83
39 85
39 86
39 88
39 90
39 91
39 94
39 96
40 43
40 48
40 52
40 53
40 55
40 59
40 65
40 68
40 69
40 71
40 75
40 76
40 77
40 79
40 80
40 81
40 84
40 85
40 86
40 87
40 89
40 93
40 95
41 45
41 46
41 48
41 52
41 56
41 58
41 64
41 65
41 70
41 73
41 79
41 81
41 82
41 83
41 87
41 89
41 94
41 99
42 43
42 48
42 50
42 52
42 53
42 56
42 57
42 63
42 64
42 74
42 83
42 84
42 92
42 93
43 44
43 50
43 51
43 52
43 57
43 60
43 70
43 75
43 91
43 94
43 95
43 98
44 46
44 50
44 52
44 53
44 54
44 55
44 57
44 58
44 61
44 67
44 72
44 73
44 74
44 83
44 84
44 88
44 93
44 95
44 97
44 99
45 46
45 59
45 61
45 63
45 65
45 68
45 69
45 70
45 74
45 75
45 81
45 84
45 86
45 87
45 91
45 95
45 99
46 50
46 54
46 60
46 61
46 62
46 63
46 68
46 70
46 73
46 74
46 76
46 81
46 87
46 89
46 95
46 96
46 98
47 50
47 53
47 57
47 58
47 60
47 69
47 77
47 80
47 84
47 85
47 86
47 90
48 53
48 54
48 56
48 64
48 65
48 68
48 74
48 75
48 76
48 79
48 83
48 84
48 87
48 91
48 94
48 96
48 97
48 98
49 50
49 53
49 58
49 60
49 65
49 69
49 70
49 71
49 75
49 76
49 79
49 86
49 87
49 89
49 91
49 92
49 95
49 99
50 51
50 52
50 53
50 55
50 61
50 66
50 70
50 71
50 76
50 82
50 98
50 99
51 52
51 53
51 54
51 57
51 59
51 65
51 77
51 83
51 84
51 86
51 88
51 89
51 90
51 97
51 98
51 99
52 61
52 74
52 76
52 77
52 78
52 81
52 83
52 85
52 93
53 59
53 61
53 62
53 63
53 64
53 66
53 69
53 70
53 78
53 81
53 83
53 85
53 88
53 89
53 95
53 96
53 99
54 56
54 57
54 59
54 60
54 61
54 65
54 68
54 71
54 75
54 84
54 88
54 89
54 90
54 92
54 94
54 96
54 97
54 99
55 56
55 58
55 64
55 65
55 69
55 72
55 75
55 76
55 78
55 83
55 87
55 88
55 90
55 91
55 93
55 99
56 61
56 65
56 66
56 68
56 70
56 71
56 74
56 77
56 80
56 85
56 99
57 58
57 63
57 66
57 68
57 76
57 77
57 80
57 84
57 93
57 94
57 98
57 99
58 60
58 63
58 64
58 67
58 68
58 69
58 70
58 73
58 78
58 87
58 95
59 61
59 70
59 71
59 76
59 83
59 89
59 90
59 97
60 62
60 63
60 64
60 65
60 67
60 70
60 78
60 79
60 87
60 92
60 96
61 62
61 64
61 65
61 71
61 72
61 73
61 76
61 77
61 89
61 90
61 91
61 95
62 64
62 67
62 73
62 79
62 87
62 91
62 97
63 70
63 71
63 72
63 75
63 76
63 80
63 84
63 85
63 87
63 88
63 89
64 65
64 66
64 69
64 70
64 72
64 77
64 81
64 90
64 91
64 92
64 95
64 99
65 78
65 84
65 85
65 93
65 94
65 98
66 68
66 70
66 73
66 76
66 78
66 86
66 87
66 89
66 94
66 95
66 97
67 73
67 74
67 79
67 82
67 85
67 89
67 97
68 70
68 81
68 85
68 94
68 96
68 99
69 78
69 79
69 80
69 83
69 85
69 86
69 88
69 92
69 95
70 73
70 74
70 79
70 85
70 86
70 88
70 89
71 80
71 82
71 88
71 89
71 92
71 94
72 74
72 75
72 76
72 83
72 87
72 91
72 93
72 95
72 97
72 99
73 74
73 75
73 76
73 82
74 75
74 80
74 81
74 82
74 84
74 88
74 89
74 90
74 95
74 96
74 99
75 76
75 77
75 86
75 96
76 80
76 81
76 86
76 87
76 88
76 91
76 92
76 96
77 78
77 81
77 85
77 92
77 93
77 94
77 97
78 79
78 82
78 85
78 87
78 94
78 98
78 99
79 80
79 96
79 98
80 81
80 85
80 92
80 94
80 98
81 82
81 84
81 85
81 87
81 91
81 92
81 96
81 98
82 83
82 88
82 92
82 98
83 86
83 87
83 89
83 93
84 86
84 92
84 93
84 95
84 98
85 90
85 92
85 96
85 98
86 87
86 89
86 94
86 95
86 96
86 98
87 89
87 91
87 95
87 96
88 96
88 98
89 90
89 95
89 96
90 91
90 94
91 96
91 98
92 95
92 96
92 98
93 94
94 96
94 98
95 98
96 98
98 99
